(set-info :smt-lib-version 2.6)
(set-logic LIA)
(set-info
  :source |
 Generated by PSyCO 0.1
 More info in N. P. Lopes and J. Monteiro. Weakest Precondition Synthesis for
 Compiler Optimizations, VMCAI'14.
|)
(set-info :category "industrial")
(set-info :status sat)
(declare-fun W_S2_V1 () Bool)
(declare-fun W_S1_V2 () Bool)
(declare-fun W_S2_V2 () Bool)
(declare-fun W_S1_V3 () Bool)
(declare-fun W_S2_V3 () Bool)
(declare-fun W_S1_V4 () Bool)
(declare-fun W_S2_V4 () Bool)
(declare-fun W_S1_V5 () Bool)
(declare-fun W_S2_V5 () Bool)
(declare-fun R_S2_V1 () Bool)
(declare-fun R_S2_V2 () Bool)
(declare-fun R_S2_V3 () Bool)
(declare-fun R_S2_V4 () Bool)
(declare-fun R_S2_V5 () Bool)
(declare-fun R_E1_V2 () Bool)
(declare-fun R_E1_V3 () Bool)
(declare-fun R_E1_V4 () Bool)
(declare-fun R_E1_V5 () Bool)
(declare-fun R_S1_V1 () Bool)
(declare-fun R_S1_V2 () Bool)
(declare-fun R_S1_V3 () Bool)
(declare-fun R_S1_V4 () Bool)
(declare-fun R_S1_V5 () Bool)
(declare-fun W_S1_V1 () Bool)
(declare-fun R_E1_V1 () Bool)
(assert
 (let
 (($x2435
   (forall
    ((V5_0 Int) (V4_0 Int) 
     (V3_0 Int) (V2_0 Int) 
     (S1_V1_!2995 Int) (S1_V1_!3012 Int) 
     (S1_V1_!3022 Int) (S1_V3_!2993 Int) 
     (S1_V3_!3010 Int) (S1_V3_!3020 Int) 
     (S1_V2_!2994 Int) (S1_V2_!3011 Int) 
     (S1_V2_!3021 Int) (S2_V1_!3001 Int) 
     (S2_V1_!3006 Int) (S2_V1_!3017 Int) 
     (S2_V1_!3027 Int) (S1_V5_!2991 Int) 
     (S1_V5_!3008 Int) (S1_V5_!3018 Int) 
     (S2_V2_!3000 Int) (S2_V2_!3005 Int) 
     (S2_V2_!3016 Int) (S2_V2_!3026 Int) 
     (S1_V4_!2992 Int) (S1_V4_!3009 Int) 
     (S1_V4_!3019 Int) (E1_!2990 Int) 
     (E1_!2996 Int) (E1_!3007 Int) 
     (S2_V3_!2999 Int) (S2_V3_!3004 Int) 
     (S2_V3_!3015 Int) (S2_V3_!3025 Int) 
     (S2_V4_!2998 Int) (S2_V4_!3003 Int) 
     (S2_V4_!3014 Int) (S2_V4_!3024 Int) 
     (S2_V5_!2997 Int) (S2_V5_!3002 Int) 
     (S2_V5_!3013 Int) (S2_V5_!3023 Int))
    (let ((?x3014 (ite W_S2_V1 S2_V1_!3017 E1_!3007)))
    (let ((?x2642 (ite W_S2_V1 S2_V1_!3001 E1_!2996)))
    (let (($x2577 (= ?x2642 ?x3014)))
    (let (($x3506 (ite W_S2_V1 (= S2_V1_!3006 S2_V1_!3027) $x2577)))
    (let ((?x2433 (ite W_S1_V2 S1_V2_!3011 V2_0)))
    (let ((?x3143 (ite W_S2_V2 S2_V2_!3016 ?x2433)))
    (let (($x2372 (= V2_0 ?x3143)))
    (let (($x3344 (= S1_V2_!2994 S1_V2_!3021)))
    (let (($x3514 (ite W_S1_V2 $x3344 $x2372)))
    (let (($x3570 (ite W_S2_V2 (= S2_V2_!3005 S2_V2_!3026) $x3514)))
    (let ((?x2718 (ite W_S1_V3 S1_V3_!3010 V3_0)))
    (let ((?x3199 (ite W_S2_V3 S2_V3_!3015 ?x2718)))
    (let (($x2835 (= V3_0 ?x3199)))
    (let (($x2444 (ite W_S1_V3 (= S1_V3_!2993 S1_V3_!3020) $x2835)))
    (let (($x3569 (ite W_S2_V3 (= S2_V3_!3004 S2_V3_!3025) $x2444)))
    (let ((?x3496 (ite W_S1_V4 S1_V4_!3009 V4_0)))
    (let ((?x3343 (ite W_S2_V4 S2_V4_!3014 ?x3496)))
    (let (($x3238 (= V4_0 ?x3343)))
    (let (($x3509 (ite W_S1_V4 (= S1_V4_!2992 S1_V4_!3019) $x3238)))
    (let (($x3568 (ite W_S2_V4 (= S2_V4_!3003 S2_V4_!3024) $x3509)))
    (let ((?x2412 (ite W_S1_V5 S1_V5_!3008 V5_0)))
    (let ((?x2502 (ite W_S2_V5 S2_V5_!3013 ?x2412)))
    (let (($x2322 (= V5_0 ?x2502)))
    (let (($x3394 (= S1_V5_!2991 S1_V5_!3018)))
    (let (($x3327 (ite W_S1_V5 $x3394 $x2322)))
    (let (($x2555 (= S2_V5_!3002 S2_V5_!3023)))
    (let (($x3567 (ite W_S2_V5 $x2555 $x3327)))
    (let ((?x2705 (+ 1 ?x3014)))
    (let ((?x2585 (ite W_S2_V1 S2_V1_!3027 ?x2705)))
    (let ((?x2822 (+ 1 ?x2642)))
    (let ((?x3366 (ite W_S2_V1 S2_V1_!3006 ?x2822)))
    (let
    (($x3565
      (and (not (<= V2_0 E1_!2990))
      (>= E1_!2990 (+ (- 1) (ite W_S1_V2 S1_V2_!2994 V2_0)))
      (not (<= (ite W_S1_V2 S1_V2_!2994 V2_0) E1_!2996))
      (not
      (<= (ite W_S2_V2 S2_V2_!3000 (ite W_S1_V2 S1_V2_!2994 V2_0)) ?x2822))
      (>= ?x3366
      (+ (- 1) (ite W_S2_V2 S2_V2_!3005 (ite W_S1_V2 S1_V2_!2994 V2_0))))
      (not (<= V2_0 E1_!3007)) 
      (not (<= ?x3143 ?x2705))
      (>= ?x2585
      (+ (- 1) (ite W_S2_V2 S2_V2_!3026 (ite W_S1_V2 S1_V2_!3021 ?x3143)))))))
    (let (($x2703 (= S2_V5_!3023 S2_V5_!3013)))
    (let (($x320 (not R_S2_V2)))
    (let
    (($x3081
      (or $x320 (ite W_S1_V2 (= S1_V2_!3021 S1_V2_!3011) (= ?x3143 V2_0)))))
    (let (($x317 (not R_S2_V3)))
    (let
    (($x3144
      (or $x317 (ite W_S1_V3 (= S1_V3_!3020 S1_V3_!3010) (= ?x3199 V3_0)))))
    (let (($x311 (not R_S2_V4)))
    (let
    (($x3149
      (or $x311 (ite W_S1_V4 (= S1_V4_!3019 S1_V4_!3009) (= ?x3343 V4_0)))))
    (let (($x305 (not R_S2_V5)))
    (let
    (($x2309
      (or $x305 (ite W_S1_V5 (= S1_V5_!3018 S1_V5_!3008) (= ?x2502 V5_0)))))
    (let
    (($x2834
      (and $x2309 $x3149 $x3144 $x3081
      (or (not R_S2_V1) (= ?x3014 (+ (- 1) E1_!3007))))))
    (let (($x322 (not R_S2_V1)))
    (let (($x3275 (or $x322 $x2577)))
    (let ((?x2894 (ite W_S1_V2 S1_V2_!3021 ?x3143)))
    (let ((?x2376 (ite W_S1_V2 S1_V2_!2994 V2_0)))
    (let ((?x2380 (ite W_S2_V2 S2_V2_!3000 ?x2376)))
    (let (($x3540 (or $x320 (= ?x2380 ?x2894))))
    (let ((?x3523 (ite W_S1_V3 S1_V3_!3020 ?x3199)))
    (let ((?x2509 (ite W_S1_V3 S1_V3_!2993 V3_0)))
    (let ((?x3333 (ite W_S2_V3 S2_V3_!2999 ?x2509)))
    (let (($x3538 (or $x317 (= ?x3333 ?x3523))))
    (let ((?x3482 (ite W_S1_V4 S1_V4_!3019 ?x3343)))
    (let ((?x3478 (ite W_S1_V4 S1_V4_!2992 V4_0)))
    (let ((?x3491 (ite W_S2_V4 S2_V4_!2998 ?x3478)))
    (let (($x3536 (or $x311 (= ?x3491 ?x3482))))
    (let ((?x3531 (ite W_S1_V5 S1_V5_!3018 ?x2502)))
    (let ((?x2781 (ite W_S1_V5 S1_V5_!2991 V5_0)))
    (let ((?x3187 (ite W_S2_V5 S2_V5_!2997 ?x2781)))
    (let (($x3534 (or $x305 (= ?x3187 ?x3531))))
    (let (($x2381 (= S2_V5_!3002 S2_V5_!3013)))
    (let (($x2994 (or $x320 (= ?x2380 ?x2433))))
    (let (($x3331 (or $x317 (= ?x3333 ?x2718))))
    (let (($x2879 (or $x311 (= ?x3491 ?x3496))))
    (let (($x3328 (or $x305 (= ?x3187 ?x2412))))
    (let
    (($x3532
      (or
      (not
      (and $x3328 $x2879 $x3331 $x2994
      (or $x322 (= ?x2642 (+ (- 1) E1_!3007))))) $x2381)))
    (let (($x3088 (= S2_V5_!2997 S2_V5_!3023)))
    (let (($x3517 (or $x320 $x3514)))
    (let (($x3526 (or $x317 $x2444)))
    (let (($x3260 (or $x311 $x3509)))
    (let (($x3513 (or $x305 $x3327)))
    (let (($x2558 (= S2_V5_!2997 S2_V5_!3013)))
    (let (($x2827 (= E1_!2996 E1_!3007)))
    (let (($x2651 (or $x322 $x2827)))
    (let (($x2512 (not W_S1_V2)))
    (let (($x3072 (or $x320 $x2512 (= S1_V2_!2994 S1_V2_!3011))))
    (let (($x2692 (not W_S1_V3)))
    (let (($x2326 (or $x317 $x2692 (= S1_V3_!2993 S1_V3_!3010))))
    (let (($x2926 (= S1_V4_!2992 S1_V4_!3009)))
    (let (($x2876 (not W_S1_V4)))
    (let (($x3406 (or $x311 $x2876 $x2926)))
    (let (($x3009 (= S1_V5_!2991 S1_V5_!3008)))
    (let (($x2167 (not W_S1_V5)))
    (let (($x3126 (or $x305 $x2167 $x3009)))
    (let (($x2283 (= S2_V5_!2997 S2_V5_!3002)))
    (let (($x3345 (or $x320 (= ?x2376 ?x2380))))
    (let (($x2803 (or $x317 (= ?x2509 ?x3333))))
    (let (($x3435 (or $x311 (= ?x3478 ?x3491))))
    (let (($x3434 (or $x305 (= ?x2781 ?x3187))))
    (let
    (($x2522
      (not (and $x3434 $x3435 $x2803 $x3345 (or $x322 (= E1_!2996 ?x2822))))))
    (let (($x3244 (= S2_V4_!3024 S2_V4_!3003)))
    (let (($x3359 (or $x322 (= ?x3014 ?x2642))))
    (let (($x3302 (or $x320 (= ?x2894 ?x2380))))
    (let (($x2354 (or $x317 (= ?x3523 ?x3333))))
    (let (($x3132 (or $x311 (= ?x3482 ?x3491))))
    (let (($x2453 (or $x305 (= ?x3531 ?x3187))))
    (let (($x2389 (not (and $x2453 $x3132 $x2354 $x3302 $x3359))))
    (let (($x2624 (= S2_V4_!3014 S2_V4_!3024)))
    (let
    (($x2608 (or $x320 (ite W_S1_V2 (= S1_V2_!3011 S1_V2_!3021) $x2372))))
    (let
    (($x3486 (or $x317 (ite W_S1_V3 (= S1_V3_!3010 S1_V3_!3020) $x2835))))
    (let
    (($x3194 (or $x311 (ite W_S1_V4 (= S1_V4_!3009 S1_V4_!3019) $x3238))))
    (let
    (($x3499 (or $x305 (ite W_S1_V5 (= S1_V5_!3008 S1_V5_!3018) $x2322))))
    (let
    (($x3307
      (not (and $x3499 $x3194 $x3486 $x2608 (or $x322 (= E1_!3007 ?x2705))))))
    (let (($x3058 (= S2_V4_!3014 S2_V4_!3003)))
    (let (($x3494 (or $x320 (= ?x2433 ?x2380))))
    (let (($x3439 (or $x317 (= ?x2718 ?x3333))))
    (let (($x2779 (or $x311 (= ?x3496 ?x3491))))
    (let (($x3445 (or $x305 (= ?x2412 ?x3187))))
    (let
    (($x2683
      (not (and $x3445 $x2779 $x3439 $x3494 (or $x322 (= E1_!3007 ?x2822))))))
    (let (($x2754 (= S2_V4_!2998 S2_V4_!3024)))
    (let (($x2447 (= S2_V3_!3025 S2_V3_!2999)))
    (let
    (($x3397
      (or $x320 (ite W_S1_V2 (= S1_V2_!3021 S1_V2_!2994) (= ?x3143 V2_0)))))
    (let
    (($x2825
      (or $x317 (ite W_S1_V3 (= S1_V3_!3020 S1_V3_!2993) (= ?x3199 V3_0)))))
    (let
    (($x2809
      (or $x311 (ite W_S1_V4 (= S1_V4_!3019 S1_V4_!2992) (= ?x3343 V4_0)))))
    (let
    (($x2495
      (or $x305 (ite W_S1_V5 (= S1_V5_!3018 S1_V5_!2991) (= ?x2502 V5_0)))))
    (let
    (($x3271
      (not
      (and $x2495 $x2809 $x2825 $x3397
      (or $x322 (= ?x3014 (+ (- 1) E1_!2996)))))))
    (let (($x2765 (= S2_V3_!3015 S2_V3_!2999)))
    (let (($x2786 (or $x322 (= E1_!3007 E1_!2996))))
    (let (($x2655 (= S1_V2_!3011 S1_V2_!2994)))
    (let (($x3138 (or $x320 $x2512 $x2655)))
    (let (($x2875 (= S1_V3_!3010 S1_V3_!2993)))
    (let (($x2294 (or $x317 $x2692 $x2875)))
    (let (($x2870 (or $x311 $x2876 (= S1_V4_!3009 S1_V4_!2992))))
    (let (($x3316 (or $x305 $x2167 (= S1_V5_!3008 S1_V5_!2991))))
    (let (($x2830 (not (and $x3316 $x2870 $x2294 $x3138 $x2786))))
    (let (($x3168 (= S2_V3_!3004 S2_V3_!2999)))
    (let (($x3390 (or $x320 (= ?x2380 ?x2376))))
    (let (($x2508 (or $x317 (= ?x3333 ?x2509))))
    (let (($x3250 (or $x311 (= ?x3491 ?x3478))))
    (let (($x2727 (or $x305 (= ?x3187 ?x2781))))
    (let
    (($x3373
      (or
      (not
      (and $x2727 $x3250 $x2508 $x3390
      (or $x322 (= ?x2642 (+ (- 1) E1_!2996))))) $x3168)))
    (let (($x66 (not R_E1_V2)))
    (let (($x3332 (or $x66 (= ?x2376 V2_0))))
    (let (($x64 (not R_E1_V3)))
    (let (($x3151 (or $x64 (= ?x2509 V3_0))))
    (let (($x62 (not R_E1_V4)))
    (let (($x3293 (or $x62 (= ?x3478 V4_0))))
    (let (($x60 (not R_E1_V5)))
    (let (($x2648 (or $x60 (= ?x2781 V5_0))))
    (let (($x3046 (= E1_!2990 E1_!3007)))
    (let (($x2919 (= S1_V4_!3019 S1_V4_!3009)))
    (let (($x3252 (= ?x3143 V2_0)))
    (let (($x111 (not R_S1_V2)))
    (let (($x3423 (or $x111 $x3252)))
    (let (($x3467 (= ?x3199 V3_0)))
    (let (($x109 (not R_S1_V3)))
    (let (($x3000 (or $x109 $x3467)))
    (let (($x3047 (= ?x3343 V4_0)))
    (let (($x107 (not R_S1_V4)))
    (let (($x2557 (or $x107 $x3047)))
    (let (($x3112 (= ?x2502 V5_0)))
    (let (($x105 (not R_S1_V5)))
    (let (($x3522 (or $x105 $x3112)))
    (let
    (($x2338
      (and $x3522 $x2557 $x3000 $x3423
      (or (not R_S1_V1) (= ?x3014 (+ (- 1) E1_!3007))))))
    (let (($x2514 (= S1_V4_!3019 S1_V4_!2992)))
    (let
    (($x3413
      (and $x3522 $x2557 $x3000 $x3423
      (or (not R_S1_V1) (= ?x3014 (+ (- 1) E1_!2990))))))
    (let (($x3223 (not (or (not R_S1_V1) $x3046))))
    (let (($x3228 (or $x3223 $x2926)))
    (let (($x3412 (or $x111 $x2372)))
    (let (($x2728 (or $x109 $x2835)))
    (let (($x2815 (or $x107 $x3238)))
    (let (($x3040 (or $x105 $x2322)))
    (let
    (($x3515
      (not
      (and $x3040 $x2815 $x2728 $x3412
      (or (not R_S1_V1) (= E1_!2990 ?x2705))))))
    (let (($x2265 (or $x3223 $x3009)))
    (let (($x2729 (= S1_V2_!3011 S1_V2_!3021)))
    (let
    (($x3192
      (not
      (and $x3040 $x2815 $x2728 $x3412
      (or (not R_S1_V1) (= E1_!3007 ?x2705))))))
    (let (($x2405 (not (or (not R_S1_V1) (= E1_!3007 E1_!2990)))))
    (let (($x2364 (or $x2405 $x2655)))
    (let (($x2681 (or $x2405 $x2875)))
    (let (($x3391 (or $x2405 (= S1_V1_!3012 S1_V1_!2995))))
    (let
    (($x3148
      (and (or $x3515 (= S1_V1_!2995 S1_V1_!3022)) $x3391
      (or $x3192 (= S1_V1_!3012 S1_V1_!3022)) $x2681
      (or $x3192 (= S1_V3_!3010 S1_V3_!3020))
      (or (not $x3413) (= S1_V3_!3020 S1_V3_!2993)) 
      (or $x3515 $x3344) $x2364 
      (or $x3192 $x2729) (or $x2522 (= S2_V1_!3001 S2_V1_!3006))
      (or $x2830 (= S2_V1_!3017 S2_V1_!3001))
      (or $x2683 (= S2_V1_!3017 S2_V1_!3006))
      (or $x3307 (= S2_V1_!3017 S2_V1_!3027))
      (or $x3271 (= S2_V1_!3027 S2_V1_!3001))
      (or $x2389 (= S2_V1_!3027 S2_V1_!3006)) $x2265 
      (or $x3515 $x3394) (or (not $x2338) (= S1_V5_!3018 S1_V5_!3008))
      (or $x2522 (= S2_V2_!3000 S2_V2_!3005))
      (or $x2830 (= S2_V2_!3016 S2_V2_!3000))
      (or $x2683 (= S2_V2_!3016 S2_V2_!3005))
      (or $x3271 (= S2_V2_!3026 S2_V2_!3000))
      (or $x2389 (= S2_V2_!3026 S2_V2_!3005))
      (or (not $x2834) (= S2_V2_!3026 S2_V2_!3016)) $x3228
      (or (not $x3413) $x2514) 
      (or (not $x2338) $x2919) $x3046
      (or (not (and $x2648 $x3293 $x3151 $x3332)) (= E1_!2996 E1_!2990))
      (or (not (and $x2648 $x3293 $x3151 $x3332)) $x2827) $x3373
      (or $x2830 $x2765) (or $x2683 (= S2_V3_!3015 S2_V3_!3004))
      (or $x3307 (= S2_V3_!3015 S2_V3_!3025)) 
      (or $x3271 $x2447) (or $x2389 (= S2_V3_!3025 S2_V3_!3004))
      (or $x2522 (= S2_V4_!2998 S2_V4_!3003))
      (or (not (and $x3126 $x3406 $x2326 $x3072 $x2651))
      (= S2_V4_!2998 S2_V4_!3014))
      (or
      (not (and $x3513 $x3260 $x3526 $x3517 (or $x322 (= E1_!2996 ?x2705))))
      $x2754) (or $x2683 $x3058) 
      (or $x3307 $x2624) (or $x2389 $x3244) 
      (or $x2522 $x2283)
      (or (not (and $x3126 $x3406 $x2326 $x3072 $x2651)) $x2558)
      (or
      (not (and $x3513 $x3260 $x3526 $x3517 (or $x322 (= E1_!2996 ?x2705))))
      $x3088) $x3532
      (or (not (and $x3534 $x3536 $x3538 $x3540 $x3275)) $x2555)
      (or (not $x2834) $x2703))))
    (or (not $x3148) (not $x3565) (and $x3567 $x3568 $x3569 $x3570 $x3506))))))))))))))))))))))))))))))))))))))))))))))))))))))))))))))))))))))))))))))))))))))))))))))))))))))))))))))))))))))))))))))))))))))))))))))))))))))))))))))))))))))))))))))))
 (let (($x2587 (or W_S1_V5 W_S1_V4 W_S1_V3 W_S1_V2)))
 (let (($x12 (or W_S2_V5 W_S2_V4 W_S2_V3 W_S2_V2 W_S2_V1)))
 (let (($x2791 (not W_S2_V1)))
 (let (($x2759 (not W_S2_V2)))
 (let (($x2971 (and $x2759 $x2791)))
 (let
 (($x3353
   (or $x2971 (and (not R_S1_V3) (not R_S1_V1) (not W_S1_V5) (not W_S1_V4))
   (and (not R_S1_V4) (not R_S1_V3) (not R_S1_V1) (not W_S1_V5))
   (and (not R_S1_V4) (not R_S1_V1) (not W_S1_V5) (not W_S1_V3))
   (and (not R_S1_V5) (not R_S1_V3) (not R_S1_V1) (not W_S1_V4))
   (and (not R_S1_V5) (not R_S1_V4) (not R_S1_V3) (not R_S1_V1))
   (and (not R_S1_V5) (not R_S1_V4) (not R_S1_V1) (not W_S1_V3))
   (and (not R_S1_V5) (not R_S1_V1) (not W_S1_V3) (not W_S1_V4)))))
 (let (($x2462 (not W_S1_V1)))
 (let
 (($x2336
   (or (and (not R_E1_V5) (not W_S1_V2) (not W_S1_V3) (not W_S1_V4))
   (and (not R_E1_V5) (not R_E1_V4) (not R_E1_V3) (not W_S1_V2))
   (and (not R_E1_V5) (not R_E1_V4) (not W_S1_V2) (not W_S1_V3))
   (and (not R_E1_V5) (not R_E1_V3) (not W_S1_V2) (not W_S1_V4))
   (and (not R_E1_V4) (not R_E1_V3) (not W_S1_V5) (not W_S1_V2))
   (and (not R_E1_V4) (not W_S1_V5) (not W_S1_V2) (not W_S1_V3))
   (and (not R_E1_V3) (not W_S1_V5) (not W_S1_V2) (not W_S1_V4))
   (and (not W_S1_V5) (not W_S1_V2) (not W_S1_V3) (not W_S1_V4)))))
 (let (($x68 (not R_E1_V1)))
 (and $x68 $x2336 $x2462 $x3353 $x12 $x2587 $x2435))))))))))))
(assert
 (let (($x2791 (not W_S2_V1)))
 (let (($x2759 (not W_S2_V2)))
 (let (($x2971 (and $x2759 $x2791))) (not $x2971)))))
(assert
 (let (($x2876 (not W_S1_V4)))
 (let (($x2611 (not W_S2_V3)))
 (let (($x2167 (not W_S1_V5)))
 (let (($x111 (not R_S1_V2)))
 (let (($x107 (not R_S1_V4)))
 (let (($x105 (not R_S1_V5)))
 (not (and $x105 $x107 $x111 $x2167 $x2611 $x2876)))))))))
(assert (not (and (not W_S2_V4) (not W_S2_V3) (not W_S2_V2) (not W_S2_V5))))
(assert
 (let (($x2759 (not W_S2_V2)))
 (let (($x2611 (not W_S2_V3)))
 (let (($x2259 (not W_S2_V4)))
 (let (($x322 (not R_S2_V1)))
 (let (($x305 (not R_S2_V5))) (not (and $x305 $x322 $x2259 $x2611 $x2759))))))))
(assert
 (let (($x2876 (not W_S1_V4)))
 (let (($x2759 (not W_S2_V2)))
 (let (($x2611 (not W_S2_V3)))
 (let (($x2167 (not W_S1_V5)))
 (let (($x107 (not R_S1_V4)))
 (let (($x105 (not R_S1_V5)))
 (not (and $x105 $x107 $x2167 $x2611 $x2759 $x2876)))))))))
(assert
 (let (($x2759 (not W_S2_V2)))
 (let (($x2611 (not W_S2_V3)))
 (let (($x2259 (not W_S2_V4)))
 (let (($x305 (not R_S2_V5)))
 (let (($x105 (not R_S1_V5))) (not (and $x105 $x305 $x2259 $x2611 $x2759))))))))
(assert
 (let (($x2759 (not W_S2_V2)))
 (let (($x2611 (not W_S2_V3)))
 (let (($x322 (not R_S2_V1)))
 (let (($x311 (not R_S2_V4)))
 (let (($x305 (not R_S2_V5))) (not (and $x305 $x311 $x322 $x2611 $x2759))))))))
(assert
 (let (($x2759 (not W_S2_V2)))
 (let (($x322 (not R_S2_V1)))
 (let (($x317 (not R_S2_V3)))
 (let (($x311 (not R_S2_V4)))
 (let (($x305 (not R_S2_V5))) (not (and $x305 $x311 $x317 $x322 $x2759))))))))
(assert
 (let (($x2876 (not W_S1_V4)))
 (let (($x2167 (not W_S1_V5)))
 (let (($x317 (not R_S2_V3)))
 (let (($x111 (not R_S1_V2)))
 (let (($x107 (not R_S1_V4)))
 (let (($x105 (not R_S1_V5)))
 (not (and $x105 $x107 $x111 $x317 $x2167 $x2876)))))))))
(assert
 (let (($x2876 (not W_S1_V4)))
 (let (($x317 (not R_S2_V3)))
 (let (($x305 (not R_S2_V5))) (not (and W_S2_V5 W_S2_V3 $x305 $x317 $x2876))))))
(assert
 (let (($x3043 (not W_S2_V5)))
 (let (($x2876 (not W_S1_V4)))
 (let (($x2759 (not W_S2_V2)))
 (let (($x2167 (not W_S1_V5)))
 (let (($x317 (not R_S2_V3)))
 (let (($x107 (not R_S1_V4)))
 (not (and $x107 $x317 $x2167 $x2759 $x2876 $x3043)))))))))
(assert (not (and W_S2_V3 (not R_S2_V3) (not W_S1_V5) (not W_S1_V4))))
(assert
 (let (($x3043 (not W_S2_V5)))
 (let (($x2876 (not W_S1_V4)))
 (let (($x2759 (not W_S2_V2)))
 (let (($x317 (not R_S2_V3)))
 (let (($x109 (not R_S1_V3)))
 (let (($x107 (not R_S1_V4)))
 (not (and $x107 $x109 $x317 $x2759 $x2876 $x3043)))))))))
(assert
 (let (($x2876 (not W_S1_V4)))
 (let (($x2759 (not W_S2_V2)))
 (let (($x2611 (not W_S2_V3)))
 (let (($x305 (not R_S2_V5)))
 (let (($x107 (not R_S1_V4)))
 (let (($x105 (not R_S1_V5)))
 (not (and $x105 $x107 $x305 $x2611 $x2759 $x2876)))))))))
(assert
 (let (($x3043 (not W_S2_V5)))
 (let (($x2759 (not W_S2_V2)))
 (let (($x2611 (not W_S2_V3)))
 (let (($x311 (not R_S2_V4)))
 (let (($x107 (not R_S1_V4))) (not (and $x107 $x311 $x2611 $x2759 $x3043))))))))
(assert
 (let (($x2692 (not W_S1_V3)))
 (let (($x2611 (not W_S2_V3)))
 (let (($x2167 (not W_S1_V5)))
 (let (($x311 (not R_S2_V4)))
 (let (($x111 (not R_S1_V2)))
 (let (($x105 (not R_S1_V5)))
 (not (and $x105 $x111 $x311 $x2167 $x2611 $x2692)))))))))
(assert
 (let (($x2611 (not W_S2_V3)))
 (let (($x2167 (not W_S1_V5)))
 (let (($x311 (not R_S2_V4)))
 (let (($x111 (not R_S1_V2)))
 (let (($x107 (not R_S1_V4)))
 (let (($x105 (not R_S1_V5)))
 (not (and $x105 $x107 $x111 $x311 $x2167 $x2611)))))))))
(assert
 (let (($x2759 (not W_S2_V2)))
 (let (($x2611 (not W_S2_V3)))
 (let (($x311 (not R_S2_V4)))
 (let (($x305 (not R_S2_V5)))
 (let (($x107 (not R_S1_V4)))
 (let (($x105 (not R_S1_V5)))
 (not (and $x105 $x107 $x305 $x311 $x2611 $x2759)))))))))
(assert (not (and W_S2_V4 (not R_S2_V4) (not W_S1_V5) (not W_S1_V3))))
(assert
 (let (($x3043 (not W_S2_V5)))
 (let (($x2759 (not W_S2_V2)))
 (let (($x2692 (not W_S1_V3)))
 (let (($x2167 (not W_S1_V5)))
 (let (($x311 (not R_S2_V4)))
 (let (($x109 (not R_S1_V3)))
 (not (and $x109 $x311 $x2167 $x2692 $x2759 $x3043)))))))))
(assert
 (let (($x2692 (not W_S1_V3)))
 (let (($x2167 (not W_S1_V5)))
 (let (($x311 (not R_S2_V4)))
 (let (($x111 (not R_S1_V2)))
 (let (($x109 (not R_S1_V3)))
 (let (($x105 (not R_S1_V5)))
 (not (and $x105 $x109 $x111 $x311 $x2167 $x2692)))))))))
(assert
 (let (($x2759 (not W_S2_V2)))
 (let (($x2692 (not W_S1_V3)))
 (let (($x2167 (not W_S1_V5)))
 (let (($x311 (not R_S2_V4)))
 (let (($x109 (not R_S1_V3)))
 (let (($x105 (not R_S1_V5)))
 (not (and $x105 $x109 $x311 $x2167 $x2692 $x2759)))))))))
(assert
 (let (($x3043 (not W_S2_V5)))
 (let (($x2759 (not W_S2_V2)))
 (let (($x2692 (not W_S1_V3)))
 (let (($x2259 (not W_S2_V4)))
 (let (($x109 (not R_S1_V3))) (not (and $x109 $x2259 $x2692 $x2759 $x3043))))))))
(assert
 (let (($x2759 (not W_S2_V2)))
 (let (($x2692 (not W_S1_V3)))
 (let (($x2259 (not W_S2_V4)))
 (let (($x305 (not R_S2_V5)))
 (let (($x109 (not R_S1_V3)))
 (let (($x105 (not R_S1_V5)))
 (not (and $x105 $x109 $x305 $x2259 $x2692 $x2759)))))))))
(assert
 (let (($x3043 (not W_S2_V5)))
 (let (($x2759 (not W_S2_V2)))
 (let (($x2692 (not W_S1_V3)))
 (let (($x311 (not R_S2_V4)))
 (let (($x109 (not R_S1_V3)))
 (let (($x107 (not R_S1_V4)))
 (not (and $x107 $x109 $x311 $x2692 $x2759 $x3043)))))))))
(assert
 (let (($x2759 (not W_S2_V2)))
 (let (($x2692 (not W_S1_V3)))
 (let (($x311 (not R_S2_V4)))
 (let (($x305 (not R_S2_V5)))
 (let (($x109 (not R_S1_V3)))
 (let (($x107 (not R_S1_V4)))
 (let (($x105 (not R_S1_V5)))
 (not (and $x105 $x107 $x109 $x305 $x311 $x2692 $x2759))))))))))
(assert
 (let (($x3043 (not W_S2_V5)))
 (let (($x2759 (not W_S2_V2)))
 (let (($x2259 (not W_S2_V4)))
 (let (($x317 (not R_S2_V3)))
 (let (($x109 (not R_S1_V3))) (not (and $x109 $x317 $x2259 $x2759 $x3043))))))))
(assert
 (let (($x3043 (not W_S2_V5)))
 (let (($x2759 (not W_S2_V2)))
 (let (($x317 (not R_S2_V3)))
 (let (($x311 (not R_S2_V4)))
 (let (($x109 (not R_S1_V3)))
 (let (($x107 (not R_S1_V4)))
 (not (and $x107 $x109 $x311 $x317 $x2759 $x3043)))))))))
(assert
 (let (($x2759 (not W_S2_V2)))
 (let (($x2167 (not W_S1_V5)))
 (let (($x317 (not R_S2_V3)))
 (let (($x311 (not R_S2_V4)))
 (let (($x109 (not R_S1_V3)))
 (let (($x107 (not R_S1_V4)))
 (let (($x105 (not R_S1_V5)))
 (not (and $x105 $x107 $x109 $x311 $x317 $x2167 $x2759))))))))))
(assert
 (let (($x2759 (not W_S2_V2)))
 (let (($x317 (not R_S2_V3)))
 (let (($x311 (not R_S2_V4)))
 (let (($x305 (not R_S2_V5)))
 (let (($x109 (not R_S1_V3)))
 (let (($x107 (not R_S1_V4)))
 (let (($x105 (not R_S1_V5)))
 (not (and $x105 $x107 $x109 $x305 $x311 $x317 $x2759))))))))))
(assert
 (let (($x317 (not R_S2_V3)))
 (let (($x311 (not R_S2_V4)))
 (let (($x305 (not R_S2_V5)))
 (not (and W_S2_V5 W_S2_V4 W_S2_V3 $x305 $x311 $x317))))))
(assert
 (let (($x3043 (not W_S2_V5)))
 (let (($x2759 (not W_S2_V2)))
 (let (($x2692 (not W_S1_V3)))
 (let (($x2611 (not W_S2_V3)))
 (let (($x2167 (not W_S1_V5)))
 (let (($x322 (not R_S2_V1)))
 (not (and $x322 $x2167 $x2611 $x2692 $x2759 $x3043)))))))))
(assert
 (let (($x2759 (not W_S2_V2)))
 (let (($x2692 (not W_S1_V3)))
 (let (($x2611 (not W_S2_V3)))
 (let (($x2167 (not W_S1_V5)))
 (let (($x322 (not R_S2_V1)))
 (let (($x305 (not R_S2_V5)))
 (let (($x105 (not R_S1_V5)))
 (not (and $x105 $x305 $x322 $x2167 $x2611 $x2692 $x2759))))))))))
(assert
 (let (($x3043 (not W_S2_V5)))
 (let (($x2759 (not W_S2_V2)))
 (let (($x2692 (not W_S1_V3)))
 (let (($x2167 (not W_S1_V5)))
 (let (($x322 (not R_S2_V1)))
 (let (($x317 (not R_S2_V3)))
 (let (($x109 (not R_S1_V3)))
 (not (and $x109 $x317 $x322 $x2167 $x2692 $x2759 $x3043))))))))))
(assert
 (let (($x2759 (not W_S2_V2)))
 (let (($x2692 (not W_S1_V3)))
 (let (($x2167 (not W_S1_V5)))
 (let (($x322 (not R_S2_V1)))
 (let (($x317 (not R_S2_V3)))
 (let (($x305 (not R_S2_V5)))
 (let (($x109 (not R_S1_V3)))
 (let (($x105 (not R_S1_V5)))
 (not (and $x105 $x109 $x305 $x317 $x322 $x2167 $x2692 $x2759)))))))))))
(assert
 (let (($x3043 (not W_S2_V5)))
 (let (($x2759 (not W_S2_V2)))
 (let (($x322 (not R_S2_V1)))
 (let (($x317 (not R_S2_V3)))
 (let (($x109 (not R_S1_V3)))
 (let (($x107 (not R_S1_V4)))
 (not (and $x107 $x109 $x317 $x322 $x2759 $x3043)))))))))
(assert
 (let (($x2759 (not W_S2_V2)))
 (let (($x2259 (not W_S2_V4)))
 (let (($x322 (not R_S2_V1)))
 (let (($x317 (not R_S2_V3)))
 (let (($x305 (not R_S2_V5))) (not (and $x305 $x317 $x322 $x2259 $x2759))))))))
(assert
 (let (($x2759 (not W_S2_V2)))
 (let (($x2611 (not W_S2_V3)))
 (let (($x322 (not R_S2_V1)))
 (let (($x305 (not R_S2_V5)))
 (let (($x107 (not R_S1_V4)))
 (let (($x105 (not R_S1_V5)))
 (not (and $x105 $x107 $x305 $x322 $x2611 $x2759)))))))))
(assert
 (let (($x2759 (not W_S2_V2)))
 (let (($x322 (not R_S2_V1)))
 (let (($x317 (not R_S2_V3)))
 (let (($x305 (not R_S2_V5)))
 (let (($x109 (not R_S1_V3)))
 (let (($x107 (not R_S1_V4)))
 (let (($x105 (not R_S1_V5)))
 (not (and $x105 $x107 $x109 $x305 $x317 $x322 $x2759))))))))))
(assert
 (let (($x2759 (not W_S2_V2)))
 (let (($x2259 (not W_S2_V4)))
 (let (($x2167 (not W_S1_V5)))
 (let (($x317 (not R_S2_V3)))
 (let (($x109 (not R_S1_V3)))
 (let (($x105 (not R_S1_V5)))
 (not (and $x105 $x109 $x317 $x2167 $x2259 $x2759)))))))))
(assert
 (let (($x2759 (not W_S2_V2)))
 (let (($x2259 (not W_S2_V4)))
 (let (($x317 (not R_S2_V3)))
 (let (($x305 (not R_S2_V5)))
 (let (($x109 (not R_S1_V3)))
 (let (($x105 (not R_S1_V5)))
 (not (and $x105 $x109 $x305 $x317 $x2259 $x2759)))))))))
(assert
 (let (($x2759 (not W_S2_V2)))
 (let (($x2611 (not W_S2_V3)))
 (let (($x322 (not R_S2_V1)))
 (let (($x311 (not R_S2_V4)))
 (let (($x107 (not R_S1_V4)))
 (let (($x105 (not R_S1_V5)))
 (not (and $x105 $x107 $x311 $x322 $x2611 $x2759)))))))))
(assert
 (let (($x2876 (not W_S1_V4)))
 (let (($x2759 (not W_S2_V2)))
 (let (($x2692 (not W_S1_V3)))
 (let (($x322 (not R_S2_V1)))
 (let (($x317 (not R_S2_V3)))
 (let (($x311 (not R_S2_V4)))
 (let (($x109 (not R_S1_V3)))
 (let (($x107 (not R_S1_V4)))
 (not (and $x107 $x109 $x311 $x317 $x322 $x2692 $x2759 $x2876)))))))))))
(assert
 (let (($x2759 (not W_S2_V2)))
 (let (($x2259 (not W_S2_V4)))
 (let (($x322 (not R_S2_V1)))
 (let (($x317 (not R_S2_V3)))
 (let (($x109 (not R_S1_V3)))
 (let (($x105 (not R_S1_V5)))
 (not (and $x105 $x109 $x317 $x322 $x2259 $x2759)))))))))
(assert
 (let (($x2759 (not W_S2_V2)))
 (let (($x322 (not R_S2_V1)))
 (let (($x317 (not R_S2_V3)))
 (let (($x311 (not R_S2_V4)))
 (let (($x109 (not R_S1_V3)))
 (let (($x107 (not R_S1_V4)))
 (let (($x105 (not R_S1_V5)))
 (not (and $x105 $x107 $x109 $x311 $x317 $x322 $x2759))))))))))
(assert
 (let (($x2759 (not W_S2_V2)))
 (let (($x322 (not R_S2_V1)))
 (let (($x317 (not R_S2_V3)))
 (let (($x109 (not R_S1_V3)))
 (not (and W_S1_V5 W_S1_V4 $x109 $x317 $x322 $x2759)))))))
(assert
 (let (($x2167 (not W_S1_V5)))
 (let (($x317 (not R_S2_V3)))
 (let (($x311 (not R_S2_V4))) (not (and W_S2_V4 W_S2_V3 $x311 $x317 $x2167))))))
(assert
 (let (($x3043 (not W_S2_V5)))
 (let (($x2759 (not W_S2_V2)))
 (let (($x322 (not R_S2_V1)))
 (let (($x317 (not R_S2_V3)))
 (let (($x311 (not R_S2_V4))) (not (and $x311 $x317 $x322 $x2759 $x3043))))))))
(assert
 (let (($x3043 (not W_S2_V5)))
 (let (($x322 (not R_S2_V1)))
 (let (($x320 (not R_S2_V2)))
 (let (($x317 (not R_S2_V3)))
 (let (($x311 (not R_S2_V4)))
 (not (and W_S2_V1 $x311 $x317 $x320 $x322 $x3043))))))))
(assert
 (let (($x3043 (not W_S2_V5)))
 (let (($x2259 (not W_S2_V4)))
 (let (($x322 (not R_S2_V1)))
 (let (($x320 (not R_S2_V2)))
 (let (($x317 (not R_S2_V3)))
 (not (and W_S2_V1 $x317 $x320 $x322 $x2259 $x3043))))))))
(assert
 (let (($x3043 (not W_S2_V5)))
 (let (($x317 (not R_S2_V3)))
 (let (($x311 (not R_S2_V4)))
 (let (($x111 (not R_S1_V2)))
 (let (($x109 (not R_S1_V3)))
 (let (($x107 (not R_S1_V4)))
 (not (and $x107 $x109 $x111 $x311 $x317 $x3043)))))))))
(assert
 (let (($x2167 (not W_S1_V5)))
 (let (($x317 (not R_S2_V3)))
 (let (($x311 (not R_S2_V4)))
 (let (($x111 (not R_S1_V2)))
 (let (($x109 (not R_S1_V3)))
 (let (($x107 (not R_S1_V4)))
 (let (($x105 (not R_S1_V5)))
 (not (and $x105 $x107 $x109 $x111 $x311 $x317 $x2167))))))))))
(assert
 (let (($x322 (not R_S2_V1)))
 (let (($x320 (not R_S2_V2)))
 (let (($x317 (not R_S2_V3)))
 (let (($x311 (not R_S2_V4)))
 (let (($x305 (not R_S2_V5)))
 (not (and W_S2_V1 $x305 $x311 $x317 $x320 $x322))))))))
(assert
 (let (($x3043 (not W_S2_V5)))
 (let (($x2692 (not W_S1_V3)))
 (let (($x2611 (not W_S2_V3)))
 (let (($x2167 (not W_S1_V5)))
 (let (($x311 (not R_S2_V4)))
 (let (($x111 (not R_S1_V2)))
 (not (and $x111 $x311 $x2167 $x2611 $x2692 $x3043)))))))))
(assert
 (let (($x2759 (not W_S2_V2)))
 (let (($x2692 (not W_S1_V3)))
 (let (($x2611 (not W_S2_V3)))
 (let (($x2167 (not W_S1_V5)))
 (let (($x311 (not R_S2_V4)))
 (let (($x105 (not R_S1_V5)))
 (not (and $x105 $x311 $x2167 $x2611 $x2692 $x2759)))))))))
(assert
 (let (($x2611 (not W_S2_V3)))
 (let (($x2259 (not W_S2_V4)))
 (let (($x2167 (not W_S1_V5)))
 (let (($x111 (not R_S1_V2)))
 (let (($x105 (not R_S1_V5))) (not (and $x105 $x111 $x2167 $x2259 $x2611))))))))
(assert (not (and (not R_S1_V2) (not W_S2_V4) (not W_S2_V3) (not W_S2_V5))))
(assert
 (let (($x322 (not R_S2_V1)))
 (let (($x320 (not R_S2_V2)))
 (let (($x311 (not R_S2_V4)))
 (let (($x305 (not R_S2_V5)))
 (let (($x111 (not R_S1_V2)))
 (let (($x109 (not R_S1_V3)))
 (let (($x107 (not R_S1_V4)))
 (let (($x105 (not R_S1_V5)))
 (not (and W_S2_V1 $x105 $x107 $x109 $x111 $x305 $x311 $x320 $x322)))))))))))
(assert
 (let (($x3043 (not W_S2_V5)))
 (let (($x2876 (not W_S1_V4)))
 (let (($x2167 (not W_S1_V5)))
 (let (($x322 (not R_S2_V1)))
 (let (($x320 (not R_S2_V2)))
 (let (($x311 (not R_S2_V4)))
 (let (($x111 (not R_S1_V2)))
 (let (($x107 (not R_S1_V4)))
 (not (and W_S2_V1 $x107 $x111 $x311 $x320 $x322 $x2167 $x2876 $x3043)))))))))))
(assert
 (let (($x3043 (not W_S2_V5)))
 (let (($x322 (not R_S2_V1)))
 (let (($x320 (not R_S2_V2)))
 (let (($x311 (not R_S2_V4)))
 (let (($x111 (not R_S1_V2)))
 (let (($x109 (not R_S1_V3)))
 (let (($x107 (not R_S1_V4)))
 (not (and W_S2_V1 $x107 $x109 $x111 $x311 $x320 $x322 $x3043))))))))))
(assert
 (let (($x2259 (not W_S2_V4)))
 (let (($x322 (not R_S2_V1)))
 (let (($x320 (not R_S2_V2)))
 (let (($x305 (not R_S2_V5)))
 (let (($x111 (not R_S1_V2)))
 (let (($x109 (not R_S1_V3)))
 (let (($x105 (not R_S1_V5)))
 (not (and W_S2_V1 $x105 $x109 $x111 $x305 $x320 $x322 $x2259))))))))))
(assert
 (let (($x3043 (not W_S2_V5)))
 (let (($x2876 (not W_S1_V4)))
 (let (($x2259 (not W_S2_V4)))
 (let (($x2167 (not W_S1_V5)))
 (let (($x322 (not R_S2_V1)))
 (let (($x320 (not R_S2_V2)))
 (let (($x111 (not R_S1_V2)))
 (not (and W_S2_V1 $x111 $x320 $x322 $x2167 $x2259 $x2876 $x3043))))))))))
(assert
 (let (($x2611 (not W_S2_V3)))
 (let (($x322 (not R_S2_V1)))
 (let (($x320 (not R_S2_V2)))
 (let (($x311 (not R_S2_V4)))
 (let (($x305 (not R_S2_V5)))
 (not (and W_S2_V1 $x305 $x311 $x320 $x322 $x2611))))))))
(assert
 (let (($x3043 (not W_S2_V5)))
 (let (($x2611 (not W_S2_V3)))
 (let (($x322 (not R_S2_V1)))
 (let (($x320 (not R_S2_V2)))
 (let (($x311 (not R_S2_V4)))
 (not (and W_S2_V1 $x311 $x320 $x322 $x2611 $x3043))))))))
(assert
 (let (($x3043 (not W_S2_V5)))
 (let (($x2692 (not W_S1_V3)))
 (let (($x2259 (not W_S2_V4)))
 (let (($x111 (not R_S1_V2)))
 (let (($x109 (not R_S1_V3))) (not (and $x109 $x111 $x2259 $x2692 $x3043))))))))
(assert
 (let (($x3043 (not W_S2_V5)))
 (let (($x2259 (not W_S2_V4)))
 (let (($x317 (not R_S2_V3)))
 (let (($x111 (not R_S1_V2)))
 (let (($x109 (not R_S1_V3))) (not (and $x109 $x111 $x317 $x2259 $x3043))))))))
(check-sat)
(exit)

